c A SAT instance generated from a 3-CNF formula that had 14 clauses and 7 variables
p cnf 7 14
-3 -2 7 0
-6 3 -5 0
-2 -3 4 0
-6 -7 4 0
3 2 1 0
-4 2 -3 0
-3 -1 -2 0
1 -2 6 0
-1 -7 6 0
1 5 -2 0
6 7 1 0
3 -2 -4 0
6 3 -4 0
-3 1 2 0
